<number of tasks>
28

<cycle time>
342

<task times>
1 70
2 59
3 33
4 6
5 1
6 27
7 17
8 62
9 31
10 53
11 21
12 19
13 108
14 52
15 5
16 8
17 97
18 8
19 47
20 67
21 17
22 8
23 3
24 21
25 107
26 3
27 2
28 72

<precedence relations>
1,2
1,3
1,4
1,5
1,8
1,19
1,21
1,22
1,23
1,24
1,26
2,6
2,17
3,28
4,28
5,28
6,7
7,18
8,9
9,10
10,11
10,12
11,15
12,13
13,14
13,16
14,28
15,28
16,28
17,28
18,28
19,20
20,28
21,28
22,28
23,28
24,25
25,28
26,27
27,28

<setup times forward>
1,2:7
1,3:3
1,4:3
1,5:2
1,8:6
1,19:2
1,21:5
1,22:6
1,23:4
1,24:2
1,26:7
2,3:10
2,4:4
2,5:5
2,6:11
2,8:13
2,9:3
2,10:10
2,11:15
2,12:8
2,13:5
2,14:2
2,15:16
2,16:15
2,19:5
2,20:2
2,21:2
2,22:13
2,23:3
2,24:9
2,25:10
2,26:14
2,27:17
3,2:10
3,4:6
3,5:5
3,6:1
3,7:3
3,8:3
3,9:7
3,11:5
3,12:2
3,13:5
3,14:8
3,15:6
3,16:5
3,17:10
3,18:1
3,19:5
3,20:8
3,21:8
3,22:3
3,23:7
3,24:1
3,26:4
3,27:7
3,28:5
4,2:4
4,3:6
4,5:1
4,6:7
4,7:3
4,8:9
4,9:1
4,10:6
4,11:11
4,12:4
4,13:1
4,14:2
4,15:12
4,16:11
4,17:4
4,18:5
4,19:1
4,20:2
4,21:2
4,22:9
4,23:1
4,24:5
4,25:6
4,26:10
4,27:13
4,28:1
5,2:5
5,3:5
5,4:1
5,6:6
5,7:2
5,8:8
5,9:2
5,10:5
5,11:10
5,12:3
5,14:3
5,15:11
5,16:10
5,17:5
5,18:4
5,20:3
5,21:3
5,22:8
5,23:2
5,24:4
5,25:5
5,26:9
5,27:12
6,3:1
6,4:7
6,5:6
6,7:4
6,8:2
6,9:8
6,10:1
6,11:4
6,12:3
6,13:6
6,14:9
6,15:5
6,16:4
6,17:11
6,19:6
6,20:9
6,21:9
6,22:2
6,23:8
6,24:2
6,25:1
6,26:3
6,27:6
7,3:3
7,4:3
7,5:2
7,8:6
7,9:4
7,10:3
7,11:8
7,12:1
7,13:2
7,14:5
7,15:9
7,16:8
7,17:7
7,18:2
7,19:2
7,20:5
7,21:5
7,22:6
7,23:4
7,24:2
7,25:3
7,26:7
7,27:10
8,2:13
8,3:3
8,4:9
8,5:8
8,6:2
8,7:6
8,9:10
8,17:13
8,18:4
8,19:8
8,20:11
8,21:11
8,23:10
8,24:4
8,25:3
8,26:1
8,27:4
9,2:3
9,3:7
9,4:1
9,5:2
9,6:8
9,7:4
9,10:7
9,17:3
9,18:6
9,19:2
9,20:1
9,21:1
9,22:10
9,24:6
9,25:7
9,26:11
9,27:14
10,2:10
10,4:6
10,5:5
10,6:1
10,7:3
10,11:5
10,12:2
10,17:10
10,18:1
10,19:5
10,20:8
10,21:8
10,22:3
10,23:7
10,24:1
10,26:4
10,27:7
11,2:15
11,3:5
11,4:11
11,5:10
11,6:4
11,7:8
11,12:7
11,13:10
11,14:13
11,15:1
11,17:15
11,18:6
11,19:10
11,20:13
11,21:13
11,22:2
11,23:12
11,24:6
11,25:5
11,26:1
11,27:2
12,2:8
12,3:2
12,4:4
12,5:3
12,6:3
12,7:1
12,11:7
12,13:3
12,15:8
12,17:8
12,18:1
12,19:3
12,20:6
12,21:6
12,22:5
12,23:5
12,24:1
12,25:2
12,26:6
12,27:9
13,2:5
13,3:5
13,4:1
13,6:6
13,7:2
13,11:10
13,14:3
13,15:11
13,16:10
13,17:5
13,18:4
13,20:3
13,21:3
13,22:8
13,23:2
13,24:4
13,25:5
13,26:9
13,27:12
14,2:2
14,3:8
14,4:2
14,5:3
14,6:9
14,7:5
14,11:13
14,15:14
14,16:13
14,17:2
14,18:7
14,19:3
14,22:11
14,23:1
14,24:7
14,25:8
14,26:12
14,27:15
14,28:3
15,2:16
15,3:6
15,4:12
15,5:11
15,6:5
15,7:9
15,12:8
15,13:11
15,14:14
15,16:1
15,17:16
15,18:7
15,19:11
15,20:14
15,21:14
15,22:3
15,23:13
15,24:7
15,25:6
15,26:2
15,27:1
15,28:11
16,2:15
16,3:5
16,4:11
16,5:10
16,6:4
16,7:8
16,14:13
16,15:1
16,17:15
16,18:6
16,19:10
16,20:13
16,21:13
16,22:2
16,23:12
16,24:6
16,25:5
16,26:1
16,27:2
16,28:10
17,3:10
17,4:4
17,5:5
17,6:11
17,7:7
17,8:13
17,9:3
17,10:10
17,11:15
17,12:8
17,13:5
17,14:2
17,15:16
17,16:15
17,18:9
17,19:5
17,20:2
17,21:2
17,22:13
17,23:3
17,24:9
17,25:10
17,26:14
17,27:17
17,28:5
18,3:1
18,4:5
18,5:4
18,8:4
18,9:6
18,10:1
18,11:6
18,12:1
18,13:4
18,14:7
18,15:7
18,16:6
18,17:9
18,19:4
18,20:7
18,21:7
18,22:4
18,23:6
18,25:1
18,26:5
18,27:8
18,28:4
19,2:5
19,3:5
19,4:1
19,6:6
19,7:2
19,8:8
19,9:2
19,10:5
19,11:10
19,12:3
19,14:3
19,15:11
19,16:10
19,17:5
19,18:4
19,20:3
19,21:3
19,22:8
19,23:2
19,24:4
19,25:5
19,26:9
19,27:12
20,2:2
20,3:8
20,4:2
20,5:3
20,6:9
20,7:5
20,8:11
20,9:1
20,10:8
20,11:13
20,12:6
20,13:3
20,15:14
20,16:13
20,17:2
20,18:7
20,22:11
20,23:1
20,24:7
20,25:8
20,26:12
20,27:15
20,28:3
21,2:2
21,3:8
21,4:2
21,5:3
21,6:9
21,7:5
21,8:11
21,9:1
21,10:8
21,11:13
21,12:6
21,13:3
21,15:14
21,16:13
21,17:2
21,18:7
21,19:3
21,22:11
21,23:1
21,24:7
21,25:8
21,26:12
21,27:15
21,28:3
22,2:13
22,3:3
22,4:9
22,5:8
22,6:2
22,7:6
22,9:10
22,10:3
22,11:2
22,12:5
22,13:8
22,14:11
22,15:3
22,16:2
22,17:13
22,18:4
22,19:8
22,20:11
22,21:11
22,23:10
22,24:4
22,25:3
22,26:1
22,27:4
22,28:8
23,2:3
23,3:7
23,4:1
23,5:2
23,6:8
23,7:4
23,8:10
23,10:7
23,11:12
23,12:5
23,13:2
23,14:1
23,15:13
23,16:12
23,17:3
23,18:6
23,19:2
23,20:1
23,21:1
23,22:10
23,24:6
23,25:7
23,26:11
23,27:14
23,28:2
24,2:9
24,3:1
24,4:5
24,5:4
24,6:2
24,7:2
24,8:4
24,9:6
24,10:1
24,11:6
24,12:1
24,13:4
24,14:7
24,15:7
24,16:6
24,17:9
24,19:4
24,20:7
24,21:7
24,22:4
24,23:6
24,25:1
24,26:5
24,27:8
25,2:10
25,4:6
25,5:5
25,6:1
25,7:3
25,8:3
25,9:7
25,11:5
25,12:2
25,13:5
25,14:8
25,15:6
25,16:5
25,17:10
25,18:1
25,19:5
25,20:8
25,21:8
25,22:3
25,23:7
25,26:4
25,27:7
25,28:5
26,2:14
26,3:4
26,4:10
26,5:9
26,6:3
26,7:7
26,8:1
26,9:11
26,10:4
26,11:1
26,12:6
26,13:9
26,14:12
26,15:2
26,16:1
26,17:14
26,18:5
26,19:9
26,20:12
26,21:12
26,22:1
26,23:11
26,24:5
26,25:4
26,27:3
27,2:17
27,3:7
27,4:13
27,5:12
27,6:6
27,7:10
27,8:4
27,9:14
27,10:7
27,11:2
27,12:9
27,13:12
27,14:15
27,15:1
27,16:2
27,17:17
27,18:8
27,19:12
27,20:15
27,21:15
27,22:4
27,23:14
27,24:8
27,25:7
27,28:12

<setup times backward>
1,1:18
2,1:25
2,2:18
2,3:28
2,4:22
2,5:23
2,8:31
2,9:21
2,10:28
2,11:33
2,12:26
2,13:23
2,14:20
2,15:34
2,16:33
2,19:23
2,20:20
2,21:20
2,22:31
2,23:21
2,24:27
2,25:28
2,26:32
2,27:35
3,1:15
3,2:8
3,3:18
3,4:12
3,5:13
3,6:19
3,7:15
3,8:21
3,9:11
3,10:18
3,11:23
3,12:16
3,13:13
3,14:10
3,15:24
3,16:23
3,17:8
3,18:17
3,19:13
3,20:10
3,21:10
3,22:21
3,23:11
3,24:17
3,25:18
3,26:22
3,27:25
4,1:21
4,2:14
4,3:24
4,4:18
4,5:19
4,6:25
4,7:21
4,8:27
4,9:17
4,10:24
4,11:29
4,12:22
4,13:19
4,14:16
4,15:30
4,16:29
4,17:14
4,18:23
4,19:19
4,20:16
4,21:16
4,22:27
4,23:17
4,24:23
4,25:24
4,26:28
4,27:31
5,1:20
5,2:13
5,3:23
5,4:17
5,5:18
5,6:24
5,7:20
5,8:26
5,9:16
5,10:23
5,11:28
5,12:21
5,13:18
5,14:15
5,15:29
5,16:28
5,17:13
5,18:22
5,19:18
5,20:15
5,21:15
5,22:26
5,23:16
5,24:22
5,25:23
5,26:27
5,27:30
6,1:14
6,2:7
6,3:17
6,4:11
6,5:12
6,6:18
6,8:20
6,9:10
6,10:17
6,11:22
6,12:15
6,13:12
6,14:9
6,15:23
6,16:22
6,17:7
6,19:12
6,20:9
6,21:9
6,22:20
6,23:10
6,24:16
6,25:17
6,26:21
6,27:24
7,1:18
7,2:11
7,3:21
7,4:15
7,5:16
7,6:22
7,7:18
7,8:24
7,9:14
7,10:21
7,11:26
7,12:19
7,13:16
7,14:13
7,15:27
7,16:26
7,17:11
7,19:16
7,20:13
7,21:13
7,22:24
7,23:14
7,24:20
7,25:21
7,26:25
7,27:28
8,1:12
8,2:5
8,3:15
8,4:9
8,5:10
8,6:16
8,7:12
8,8:18
8,17:5
8,18:14
8,19:10
8,20:7
8,21:7
8,22:18
8,23:8
8,24:14
8,25:15
8,26:19
8,27:22
9,1:22
9,2:15
9,3:25
9,4:19
9,5:20
9,6:26
9,7:22
9,8:28
9,9:18
9,17:15
9,18:24
9,19:20
9,20:17
9,21:17
9,22:28
9,23:18
9,24:24
9,25:25
9,26:29
9,27:32
10,1:15
10,2:8
10,3:18
10,4:12
10,5:13
10,6:19
10,7:15
10,8:21
10,9:11
10,10:18
10,17:8
10,18:17
10,19:13
10,20:10
10,21:10
10,22:21
10,23:11
10,24:17
10,25:18
10,26:22
10,27:25
11,1:10
11,2:3
11,3:13
11,4:7
11,5:8
11,6:14
11,7:10
11,8:16
11,9:6
11,10:13
11,11:18
11,12:11
11,13:8
11,14:5
11,16:18
11,17:3
11,18:12
11,19:8
11,20:5
11,21:5
11,22:16
11,23:6
11,24:12
11,25:13
11,26:17
11,27:20
12,1:17
12,2:10
12,3:20
12,4:14
12,5:15
12,6:21
12,7:17
12,8:23
12,9:13
12,10:20
12,11:25
12,12:18
12,15:26
12,17:10
12,18:19
12,19:15
12,20:12
12,21:12
12,22:23
12,23:13
12,24:19
12,25:20
12,26:24
12,27:27
13,1:20
13,2:13
13,3:23
13,4:17
13,5:18
13,6:24
13,7:20
13,8:26
13,9:16
13,10:23
13,11:28
13,12:21
13,13:18
13,15:29
13,17:13
13,18:22
13,19:18
13,20:15
13,21:15
13,22:26
13,23:16
13,24:22
13,25:23
13,26:27
13,27:30
14,1:23
14,2:16
14,3:26
14,4:20
14,5:21
14,6:27
14,7:23
14,8:29
14,9:19
14,10:26
14,11:31
14,12:24
14,13:21
14,14:18
14,15:32
14,16:31
14,17:16
14,18:25
14,19:21
14,20:18
14,21:18
14,22:29
14,23:19
14,24:25
14,25:26
14,26:30
14,27:33
15,1:9
15,2:2
15,3:12
15,4:6
15,5:7
15,6:13
15,7:9
15,8:15
15,9:5
15,10:12
15,11:17
15,12:10
15,13:7
15,14:4
15,15:18
15,16:17
15,17:2
15,18:11
15,19:7
15,20:4
15,21:4
15,22:15
15,23:5
15,24:11
15,25:12
15,26:16
15,27:19
16,1:10
16,2:3
16,3:13
16,4:7
16,5:8
16,6:14
16,7:10
16,8:16
16,9:6
16,10:13
16,11:18
16,12:11
16,13:8
16,14:5
16,15:19
16,16:18
16,17:3
16,18:12
16,19:8
16,20:5
16,21:5
16,22:16
16,23:6
16,24:12
16,25:13
16,26:17
16,27:20
17,1:25
17,2:18
17,3:28
17,4:22
17,5:23
17,6:29
17,7:25
17,8:31
17,9:21
17,10:28
17,11:33
17,12:26
17,13:23
17,14:20
17,15:34
17,16:33
17,17:18
17,18:27
17,19:23
17,20:20
17,21:20
17,22:31
17,23:21
17,24:27
17,25:28
17,26:32
17,27:35
18,1:16
18,2:9
18,3:19
18,4:13
18,5:14
18,6:20
18,7:16
18,8:22
18,9:12
18,10:19
18,11:24
18,12:17
18,13:14
18,14:11
18,15:25
18,16:24
18,17:9
18,18:18
18,19:14
18,20:11
18,21:11
18,22:22
18,23:12
18,24:18
18,25:19
18,26:23
18,27:26
19,1:20
19,2:13
19,3:23
19,4:17
19,5:18
19,6:24
19,7:20
19,8:26
19,9:16
19,10:23
19,11:28
19,12:21
19,13:18
19,14:15
19,15:29
19,16:28
19,17:13
19,18:22
19,19:18
19,21:15
19,22:26
19,23:16
19,24:22
19,25:23
19,26:27
19,27:30
20,1:23
20,2:16
20,3:26
20,4:20
20,5:21
20,6:27
20,7:23
20,8:29
20,9:19
20,10:26
20,11:31
20,12:24
20,13:21
20,14:18
20,15:32
20,16:31
20,17:16
20,18:25
20,19:21
20,20:18
20,21:18
20,22:29
20,23:19
20,24:25
20,25:26
20,26:30
20,27:33
21,1:23
21,2:16
21,3:26
21,4:20
21,5:21
21,6:27
21,7:23
21,8:29
21,9:19
21,10:26
21,11:31
21,12:24
21,13:21
21,14:18
21,15:32
21,16:31
21,17:16
21,18:25
21,19:21
21,20:18
21,21:18
21,22:29
21,23:19
21,24:25
21,25:26
21,26:30
21,27:33
22,1:12
22,2:5
22,3:15
22,4:9
22,5:10
22,6:16
22,7:12
22,8:18
22,9:8
22,10:15
22,11:20
22,12:13
22,13:10
22,14:7
22,15:21
22,16:20
22,17:5
22,18:14
22,19:10
22,20:7
22,21:7
22,22:18
22,23:8
22,24:14
22,25:15
22,26:19
22,27:22
23,1:22
23,2:15
23,3:25
23,4:19
23,5:20
23,6:26
23,7:22
23,8:28
23,9:18
23,10:25
23,11:30
23,12:23
23,13:20
23,14:17
23,15:31
23,16:30
23,17:15
23,18:24
23,19:20
23,20:17
23,21:17
23,22:28
23,23:18
23,24:24
23,25:25
23,26:29
23,27:32
24,1:16
24,2:9
24,3:19
24,4:13
24,5:14
24,6:20
24,7:16
24,8:22
24,9:12
24,10:19
24,11:24
24,12:17
24,13:14
24,14:11
24,15:25
24,16:24
24,17:9
24,18:18
24,19:14
24,20:11
24,21:11
24,22:22
24,23:12
24,24:18
24,26:23
24,27:26
25,1:15
25,2:8
25,3:18
25,4:12
25,5:13
25,6:19
25,7:15
25,8:21
25,9:11
25,10:18
25,11:23
25,12:16
25,13:13
25,14:10
25,15:24
25,16:23
25,17:8
25,18:17
25,19:13
25,20:10
25,21:10
25,22:21
25,23:11
25,24:17
25,25:18
25,26:22
25,27:25
26,1:11
26,2:4
26,3:14
26,4:8
26,5:9
26,6:15
26,7:11
26,8:17
26,9:7
26,10:14
26,11:19
26,12:12
26,13:9
26,14:6
26,15:20
26,16:19
26,17:4
26,18:13
26,19:9
26,20:6
26,21:6
26,22:17
26,23:7
26,24:13
26,25:14
26,26:18
27,1:8
27,2:1
27,3:11
27,4:5
27,5:6
27,6:12
27,7:8
27,8:14
27,9:4
27,10:11
27,11:16
27,12:9
27,13:6
27,14:3
27,15:17
27,16:16
27,17:1
27,18:10
27,19:6
27,20:3
27,21:3
27,22:14
27,23:4
27,24:10
27,25:11
27,26:15
27,27:18
28,1:20
28,2:13
28,3:23
28,4:17
28,5:18
28,6:24
28,7:20
28,8:26
28,9:16
28,10:23
28,11:28
28,12:21
28,13:18
28,14:15
28,15:29
28,16:28
28,17:13
28,18:22
28,19:18
28,20:15
28,21:15
28,22:26
28,23:16
28,24:22
28,25:23
28,26:27
28,27:30
28,28:18

<end>

<optimal SALBP-1 value>
3


<rand seed>
467321153

<Lower Bounds>
Lm1=3
Lms1=3
Lm2=0
Lm3=0
Lm4=4
Best=4

<Optimal Stations (Iterations: 10)>
4
